50
100072 100097 100060 100004 100066 100067 100013 100081 100003 100059 100062 100095 100016 100022 100068 100048 100092 100016 100066 100021 100094 100037 100041 100051 100093 100084 100063 100032 100063 100088 100047 100014 100079 100099 100030 100005 100032 100019 100065 100050 100085 100019 100064 100059 100013 100050 100021 100002 100039 100038 
547 125 281 431 17 499 953 429 835 961 21 14 437 960 455 798 672 46 466 644 160 133 668 301 691 278 77 375 788 349 546 774 278 867 42 451 242 171 900 167 781 472 946 886 17 952 559 727 106 719 
2476487
